============================[ Problem Statistics ]=============================|                                                                             ||  Number of variables:          4242                                         ||  Number of clauses:           10144                                         ||  Parse time:                   0.54 s                                       ||                                                                             |============================[ Search Statistics ]==============================| Conflicts |          ORIGINAL         |          LEARNT          | Progress ||           |    Vars  Clauses Literals |    Limit  Clauses Lit/Cl |          |===============================================================================|       100 |    1591     6349   848660 |     2327      100     53 | 62.501 % ||       250 |    1591     6349   848660 |     2560      250     75 | 62.495 % |===============================================================================restarts              : 3conflicts             : 296            (363 /sec)decisions             : 559            (0.00 % random) (686 /sec)propagations          : 11843          (14531 /sec)conflict literals     : 23275          (94.75 % deleted)CPU time              : 0.815 sSATISFIABLE